137  263
 376  231
 401  440
 289  294
  66  117
 445  213
 242  441
 151   74
 312  396
  71  404
 365  465
 393  343
 304   48
 190   48
 328  152
  67  218
 429  445
  78  424
 370  351
 120  347
  81   88
 181   85
 271  435
 351  312
 369  103
